Instance Name : r206
Date : 2022-07-18
Solution
Route 1 : 27 69 31 88 62 63 90 30 51 9 81 78 79 76 12 26 40 53
Route 2 : 21 73 72 39 67 23 41 22 74 75 56 4 25 55 54 24 80 68 77
Route 3 : 2 15 42 92 37 98 91 44 14 38 86 16 61 99 96 6 94 95 97 87 57 43 100 85 93 59 13 58
Route 4 : 28 50 33 3 29 34 71 65 35 66 20 32 10 70 1
Route 5 : 52 7 82 45 48 47 36 19 11 64 49 46 8 18 83 84 17 5 60 89
